NAME: set1_case1_15_20
COMMENT: 770
VEHICLE: 38
TIME: 600
DIMENSION: 20
CAPACITY: 10
DELIVERY_SECTION
0 0 0
1 1 2
2 1 2
3 1 2
4 1 2
5 1 2
6 1 2
7 1 2
8 1 2
9 1 2
10 1 2
11 2 2
12 2 2
13 2 2
14 2 2
15 2 2
16 2 2
17 2 2
18 2 2
19 2 2
20 2 2
21 3 2
22 3 2
23 3 2
24 3 2
25 3 2
26 3 2
27 3 2
28 3 2
29 3 2
30 3 2
31 4 2
32 4 2
33 4 2
34 4 2
35 4 2
36 4 2
37 4 2
38 4 2
39 4 2
40 4 2
41 5 2
42 5 2
43 5 2
44 5 2
45 5 2
46 5 2
47 5 2
48 5 2
49 5 2
50 5 2
51 6 2
52 6 2
53 6 2
54 6 2
55 6 2
56 6 2
57 6 2
58 6 2
59 6 2
60 6 2
61 7 2
62 7 2
63 7 2
64 7 2
65 7 2
66 7 2
67 7 2
68 7 2
69 7 2
70 7 2
71 8 2
72 8 2
73 8 2
74 8 2
75 8 2
76 8 2
77 8 2
78 8 2
79 8 2
80 8 2
81 9 2
82 9 2
83 9 2
84 9 2
85 9 2
86 9 2
87 9 2
88 9 2
89 9 2
90 9 2
91 10 2
92 10 2
93 10 2
94 10 2
95 10 2
96 10 2
97 10 2
98 10 2
99 10 2
100 10 2
101 11 2
102 11 2
103 11 2
104 11 2
105 11 2
106 11 2
107 11 2
108 11 2
109 11 2
110 11 2
111 12 2
112 12 2
113 12 2
114 12 2
115 12 2
116 12 2
117 12 2
118 12 2
119 12 2
120 12 2
121 13 2
122 13 2
123 13 2
124 13 2
125 13 2
126 13 2
127 13 2
128 13 2
129 13 2
130 13 2
131 14 2
132 14 2
133 14 2
134 14 2
135 14 2
136 14 2
137 14 2
138 14 2
139 14 2
140 14 2
141 15 2
142 15 2
143 15 2
144 15 2
145 15 2
146 15 2
147 15 2
148 15 2
149 15 2
150 15 2
151 16 2
152 16 2
153 16 2
154 16 2
155 16 2
156 16 2
157 16 2
158 16 2
159 16 2
160 16 2
161 17 2
162 17 2
163 17 2
164 17 2
165 17 2
166 17 2
167 17 2
168 17 2
169 17 2
170 17 2
171 18 2
172 18 2
173 18 2
174 18 2
175 18 2
176 18 2
177 18 2
178 18 2
179 18 2
180 18 2
181 19 2
182 19 2
183 19 2
184 19 2
185 19 2
186 19 2
187 19 2
188 19 2
189 19 2
190 19 2
PICKUP_SECTION
0 0 0
1 1 2
2 1 2
3 1 2
4 1 2
5 1 2
6 1 2
7 1 2
8 1 1
9 2 2
10 2 2
11 2 2
12 2 2
13 2 2
14 2 2
15 2 2
16 2 1
17 3 2
18 3 2
19 3 2
20 3 2
21 3 2
22 3 2
23 3 2
24 3 1
25 4 2
26 4 2
27 4 2
28 4 2
29 4 2
30 4 2
31 4 2
32 4 1
33 5 2
34 5 2
35 5 2
36 5 2
37 5 2
38 5 2
39 5 2
40 5 1
41 6 2
42 6 2
43 6 2
44 6 2
45 6 2
46 6 2
47 6 2
48 6 1
49 7 2
50 7 2
51 7 2
52 7 2
53 7 2
54 7 2
55 7 2
56 7 1
57 8 2
58 8 2
59 8 2
60 8 2
61 8 2
62 8 2
63 8 2
64 8 1
65 9 2
66 9 2
67 9 2
68 9 2
69 9 2
70 9 2
71 9 2
72 9 1
73 10 2
74 10 2
75 10 2
76 10 2
77 10 2
78 10 2
79 10 2
80 10 1
81 11 2
82 11 2
83 11 2
84 11 2
85 11 2
86 11 2
87 11 2
88 11 1
89 12 2
90 12 2
91 12 2
92 12 2
93 12 2
94 12 2
95 12 2
96 12 1
97 13 2
98 13 2
99 13 2
100 13 2
101 13 2
102 13 2
103 13 2
104 13 1
105 14 2
106 14 2
107 14 2
108 14 2
109 14 2
110 14 2
111 14 2
112 14 1
113 15 2
114 15 2
115 15 2
116 15 2
117 15 2
118 15 2
119 15 2
120 15 1
121 16 2
122 16 2
123 16 2
124 16 2
125 16 2
126 16 2
127 16 2
128 16 1
129 17 2
130 17 2
131 17 2
132 17 2
133 17 2
134 17 2
135 17 2
136 17 1
137 18 2
138 18 2
139 18 2
140 18 2
141 18 2
142 18 2
143 18 2
144 18 1
145 19 2
146 19 2
147 19 2
148 19 2
149 19 2
150 19 2
151 19 2
152 19 1
NODE_SECTION
DISTANCE_SECTION
10 10 10 10 10 10 10 10 10 10 10 10 10 10 10 10 10 10 10 
10 10 10 10 10 10 10 10 10 10 10 10 10 10 10 10 10 10 
10 10 10 10 10 10 10 10 10 10 10 10 10 10 10 10 10 
10 10 10 10 10 10 10 10 10 10 10 10 10 10 10 10 
10 10 10 10 10 10 10 10 10 10 10 10 10 10 10 
10 10 10 10 10 10 10 10 10 10 10 10 10 10 
10 10 10 10 10 10 10 10 10 10 10 10 10 
10 10 10 10 10 10 10 10 10 10 10 10 
10 10 10 10 10 10 10 10 10 10 10 
10 10 10 10 10 10 10 10 10 10 
10 10 10 10 10 10 10 10 10 
10 10 10 10 10 10 10 10 
10 10 10 10 10 10 10 
10 10 10 10 10 10 
10 10 10 10 10 
10 10 10 10 
10 10 10 
10 10 
10 
DEPOT_SECTION
0
EOF